c This is UnifRandomKSATGenerator
c uniform random 3-SAT generated instance with: 
c clause length: 3 
c number variables: 10 
c number clauses: 43 
c clause to variable ratio: 4.27 
c random number generator name: SHA1PRNG 
c random number generator provider: SUN 
c random number generator seed: 1976959361641956369 
p cnf 10 43
8 1 -6 0
9 3 -5 0
-1 -5 6 0
3 -7 -8 0
2 5 6 0
-1 -3 5 0
1 -2 6 0
-1 10 -7 0
1 3 7 0
-9 -3 -4 0
9 6 -8 0
-3 4 5 0
-2 -10 6 0
-4 3 -7 0
-1 8 9 0
-2 -10 9 0
8 9 5 0
8 3 4 0
-9 1 3 0
5 6 -7 0
-1 -10 -5 0
-9 -10 -3 0
-2 3 5 0
-1 5 6 0
-9 -10 2 0
9 -2 3 0
-5 -6 7 0
-1 10 -4 0
-10 -5 -8 0
-4 3 -6 0
-2 -5 6 0
-2 -3 5 0
3 6 7 0
1 2 6 0
-10 5 6 0
-10 -4 -7 0
-2 -3 -8 0
-10 1 -3 0
9 10 -6 0
-9 -1 5 0
-1 -7 -8 0
-9 4 -5 0
-1 4 -5 0
